        bond_coeff 1 600.0 1.0
        angle_coeff 1 75.0 109.47
        pair_coeff 1 1 0.1553 3.166
        pair_coeff 2 2 0.0 0.0
        group spce type 1 2
