        units real
        atom_style full
        pair_style lj/charmm/coul/long 9.0 10.0
        bond_style harmonic
        angle_style harmonic
        kspace_style pppm 0.0001
